; Options: -in -smt2
(set-option :produce-unsat-assumptions true)

(declare-fun start!1169 () Bool)

(assert start!1169)

(declare-fun res!4295 () Bool)

(declare-fun e!2836 () Bool)

(assert (=> start!1169 (=> (not res!4295) (not e!2836))))

(declare-fun jz!70 () (_ BitVec 32))

(declare-datatypes ((array!440 0))(
  ( (array!441 (arr!194 (Array (_ BitVec 32) (_ FloatingPoint 11 53))) (size!194 (_ BitVec 32))) )
))
(declare-fun qq!74 () array!440)

(assert (=> start!1169 (= res!4295 (and (bvsle #b00000000000000000000000000000000 jz!70) (bvslt jz!70 #b00000000000000000000000000010100) (= (size!194 qq!74) #b00000000000000000000000000010100)))))

(assert (=> start!1169 e!2836))

(assert (=> start!1169 true))

(declare-fun array_inv!144 (array!440) Bool)

(assert (=> start!1169 (array_inv!144 qq!74)))

(declare-fun fq!78 () array!440)

(assert (=> start!1169 (array_inv!144 fq!78)))

(declare-fun b!5430 () Bool)

(declare-fun res!4296 () Bool)

(assert (=> b!5430 (=> (not res!4296) (not e!2836))))

(declare-fun fqInv!0 (array!440) Bool)

(assert (=> b!5430 (= res!4296 (fqInv!0 fq!78))))

(declare-fun b!5428 () Bool)

(declare-fun res!4298 () Bool)

(assert (=> b!5428 (=> (not res!4298) (not e!2836))))

(declare-fun qqInv!0 (array!440) Bool)

(assert (=> b!5428 (= res!4298 (qqInv!0 qq!74))))

(declare-fun i!327 () (_ BitVec 32))

(declare-fun b!5431 () Bool)

(assert (=> b!5431 (= e!2836 (and (bvslt i!327 jz!70) (let ((fw0!4 (fp.mul roundNearestTiesToEven (fp #b0 #b01111111111 #b1001001000011111101101000000000000000000000000000000) (select (arr!194 qq!74) i!327)))) (let ((fw1!4 (fp.mul roundNearestTiesToEven (fp #b0 #b01111100111 #b0100010001000010110100000000000000000000000000000000) (select (arr!194 qq!74) (bvsub i!327 #b00000000000000000000000000000001))))) (and (fp.leq (fp #b0 #b00000000000 #b0000000000000000000000000000000000000000000000000000) fw0!4) (fp.leq fw0!4 (fp.mul roundNearestTiesToEven (fp #b0 #b01111111111 #b1001001000011111101101000000000000000000000000000000) (select (store (store (store (store (store (store (store (store (store (store (store (store (store (store (store (store (store (store (store (store ((as const (Array (_ BitVec 32) (_ FloatingPoint 11 53))) (fp #b0 #b00000000000 #b0000000000000000000000000000000000000000000000000000)) #b00000000000000000000000000000000 (fp #b0 #b01111111101 #b1111111111111111111111000000000000000000000000000000)) #b00000000000000000000000000000001 (fp #b0 #b01111100110 #b1111111111111111111111100000000000000000000000000000)) #b00000000000000000000000000001010 (fp #b0 #b01100001110 #b1111111111111111111111100000000000000000000000000000)) #b00000000000000000000000000001011 (fp #b0 #b01011110110 #b1111111111111111111111100000000000000000000000000000)) #b00000000000000000000000000001100 (fp #b0 #b01011011110 #b1111111111111111111111100000000000000000000000000000)) #b00000000000000000000000000001101 (fp #b0 #b01011000110 #b1111111111111111111111100000000000000000000000000000)) #b00000000000000000000000000001110 (fp #b0 #b01010101110 #b1111111111111111111111100000000000000000000000000000)) #b00000000000000000000000000001111 (fp #b0 #b01010010110 #b1111111111111111111111100000000000000000000000000000)) #b00000000000000000000000000010000 (fp #b0 #b01001111110 #b1111111111111111111111100000000000000000000000000000)) #b00000000000000000000000000010001 (fp #b0 #b01001100110 #b1111111111111111111111100000000000000000000000000000)) #b00000000000000000000000000010010 (fp #b0 #b01001001110 #b1111111111111111111111100000000000000000000000000000)) #b00000000000000000000000000010011 (fp #b0 #b01000110110 #b1111111111111111111111100000000000000000000000000000)) #b00000000000000000000000000000010 (fp #b0 #b01111001110 #b1111111111111111111111100000000000000000000000000000)) #b00000000000000000000000000000011 (fp #b0 #b01110110110 #b1111111111111111111111100000000000000000000000000000)) #b00000000000000000000000000000100 (fp #b0 #b01110011110 #b1111111111111111111111100000000000000000000000000000)) #b00000000000000000000000000000101 (fp #b0 #b01110000110 #b1111111111111111111111100000000000000000000000000000)) #b00000000000000000000000000000110 (fp #b0 #b01101101110 #b1111111111111111111111100000000000000000000000000000)) #b00000000000000000000000000000111 (fp #b0 #b01101010110 #b1111111111111111111111100000000000000000000000000000)) #b00000000000000000000000000001000 (fp #b0 #b01100111110 #b1111111111111111111111100000000000000000000000000000)) #b00000000000000000000000000001001 (fp #b0 #b01100100110 #b1111111111111111111111100000000000000000000000000000)) i!327))) (or (not (fp.leq (fp #b0 #b00000000000 #b0000000000000000000000000000000000000000000000000000) fw1!4)) (not (fp.leq fw1!4 (fp.mul roundNearestTiesToEven (fp #b0 #b01111100111 #b0100010001000010110100000000000000000000000000000000) (select (store (store (store (store (store (store (store (store (store (store (store (store (store (store (store (store (store (store (store (store ((as const (Array (_ BitVec 32) (_ FloatingPoint 11 53))) (fp #b0 #b00000000000 #b0000000000000000000000000000000000000000000000000000)) #b00000000000000000000000000000000 (fp #b0 #b01111111101 #b1111111111111111111111000000000000000000000000000000)) #b00000000000000000000000000000001 (fp #b0 #b01111100110 #b1111111111111111111111100000000000000000000000000000)) #b00000000000000000000000000001010 (fp #b0 #b01100001110 #b1111111111111111111111100000000000000000000000000000)) #b00000000000000000000000000001011 (fp #b0 #b01011110110 #b1111111111111111111111100000000000000000000000000000)) #b00000000000000000000000000001100 (fp #b0 #b01011011110 #b1111111111111111111111100000000000000000000000000000)) #b00000000000000000000000000001101 (fp #b0 #b01011000110 #b1111111111111111111111100000000000000000000000000000)) #b00000000000000000000000000001110 (fp #b0 #b01010101110 #b1111111111111111111111100000000000000000000000000000)) #b00000000000000000000000000001111 (fp #b0 #b01010010110 #b1111111111111111111111100000000000000000000000000000)) #b00000000000000000000000000010000 (fp #b0 #b01001111110 #b1111111111111111111111100000000000000000000000000000)) #b00000000000000000000000000010001 (fp #b0 #b01001100110 #b1111111111111111111111100000000000000000000000000000)) #b00000000000000000000000000010010 (fp #b0 #b01001001110 #b1111111111111111111111100000000000000000000000000000)) #b00000000000000000000000000010011 (fp #b0 #b01000110110 #b1111111111111111111111100000000000000000000000000000)) #b00000000000000000000000000000010 (fp #b0 #b01111001110 #b1111111111111111111111100000000000000000000000000000)) #b00000000000000000000000000000011 (fp #b0 #b01110110110 #b1111111111111111111111100000000000000000000000000000)) #b00000000000000000000000000000100 (fp #b0 #b01110011110 #b1111111111111111111111100000000000000000000000000000)) #b00000000000000000000000000000101 (fp #b0 #b01110000110 #b1111111111111111111111100000000000000000000000000000)) #b00000000000000000000000000000110 (fp #b0 #b01101101110 #b1111111111111111111111100000000000000000000000000000)) #b00000000000000000000000000000111 (fp #b0 #b01101010110 #b1111111111111111111111100000000000000000000000000000)) #b00000000000000000000000000001000 (fp #b0 #b01100111110 #b1111111111111111111111100000000000000000000000000000)) #b00000000000000000000000000001001 (fp #b0 #b01100100110 #b1111111111111111111111100000000000000000000000000000)) (bvsub i!327 #b00000000000000000000000000000001)))))))))))))

(declare-fun b!5429 () Bool)

(declare-fun res!4297 () Bool)

(assert (=> b!5429 (=> (not res!4297) (not e!2836))))

(assert (=> b!5429 (= res!4297 (and (fp.leq (fp #b0 #b00000000000 #b0000000000000000000000000000000000000000000000000000) (select (store ((as const (Array (_ BitVec 32) (_ FloatingPoint 11 53))) (fp #b0 #b00000000000 #b0000000000000000000000000000000000000000000000000000)) #b00000000000000000000000000000000 (fp.mul roundNearestTiesToEven (fp #b0 #b01111111111 #b1001001000011111101101000000000000000000000000000000) (select (arr!194 qq!74) #b00000000000000000000000000000000))) #b00000000000000000000000000000000)) (fp.leq (select (store ((as const (Array (_ BitVec 32) (_ FloatingPoint 11 53))) (fp #b0 #b00000000000 #b0000000000000000000000000000000000000000000000000000)) #b00000000000000000000000000000000 (fp.mul roundNearestTiesToEven (fp #b0 #b01111111111 #b1001001000011111101101000000000000000000000000000000) (select (arr!194 qq!74) #b00000000000000000000000000000000))) #b00000000000000000000000000000000) (fp #b0 #b01111111110 #b1001001000011111101100001101101111000000100110000000)) (fp.leq (fp #b0 #b00000000000 #b0000000000000000000000000000000000000000000000000000) (select (store (store ((as const (Array (_ BitVec 32) (_ FloatingPoint 11 53))) (fp #b0 #b00000000000 #b0000000000000000000000000000000000000000000000000000)) #b00000000000000000000000000000000 (fp.mul roundNearestTiesToEven (fp #b0 #b01111111111 #b1001001000011111101101000000000000000000000000000000) (select (arr!194 qq!74) #b00000000000000000000000000000000))) #b00000000000000000000000000000001 (fp.add roundNearestTiesToEven (fp.mul roundNearestTiesToEven (fp #b0 #b01111111111 #b1001001000011111101101000000000000000000000000000000) (select (arr!194 qq!74) #b00000000000000000000000000000001)) (fp.mul roundNearestTiesToEven (fp #b0 #b01111100111 #b0100010001000010110100000000000000000000000000000000) (select (arr!194 qq!74) #b00000000000000000000000000000000)))) #b00000000000000000000000000000001)) (fp.leq (select (store (store ((as const (Array (_ BitVec 32) (_ FloatingPoint 11 53))) (fp #b0 #b00000000000 #b0000000000000000000000000000000000000000000000000000)) #b00000000000000000000000000000000 (fp.mul roundNearestTiesToEven (fp #b0 #b01111111111 #b1001001000011111101101000000000000000000000000000000) (select (arr!194 qq!74) #b00000000000000000000000000000000))) #b00000000000000000000000000000001 (fp.add roundNearestTiesToEven (fp.mul roundNearestTiesToEven (fp #b0 #b01111111111 #b1001001000011111101101000000000000000000000000000000) (select (arr!194 qq!74) #b00000000000000000000000000000001)) (fp.mul roundNearestTiesToEven (fp #b0 #b01111100111 #b0100010001000010110100000000000000000000000000000000) (select (arr!194 qq!74) #b00000000000000000000000000000000)))) #b00000000000000000000000000000001) (fp #b0 #b01111101000 #b0001101000100000100011001001010011001110101111100000)) (fp.leq (fp #b0 #b00000000000 #b0000000000000000000000000000000000000000000000000000) (select (store (store (store ((as const (Array (_ BitVec 32) (_ FloatingPoint 11 53))) (fp #b0 #b00000000000 #b0000000000000000000000000000000000000000000000000000)) #b00000000000000000000000000000000 (fp.mul roundNearestTiesToEven (fp #b0 #b01111111111 #b1001001000011111101101000000000000000000000000000000) (select (arr!194 qq!74) #b00000000000000000000000000000000))) #b00000000000000000000000000000001 (fp.add roundNearestTiesToEven (fp.mul roundNearestTiesToEven (fp #b0 #b01111111111 #b1001001000011111101101000000000000000000000000000000) (select (arr!194 qq!74) #b00000000000000000000000000000001)) (fp.mul roundNearestTiesToEven (fp #b0 #b01111100111 #b0100010001000010110100000000000000000000000000000000) (select (arr!194 qq!74) #b00000000000000000000000000000000)))) #b00000000000000000000000000000010 (fp.add roundNearestTiesToEven (fp.add roundNearestTiesToEven (fp.mul roundNearestTiesToEven (fp #b0 #b01111111111 #b1001001000011111101101000000000000000000000000000000) (select (arr!194 qq!74) #b00000000000000000000000000000010)) (fp.mul roundNearestTiesToEven (fp #b0 #b01111100111 #b0100010001000010110100000000000000000000000000000000) (select (arr!194 qq!74) #b00000000000000000000000000000001))) (fp.mul roundNearestTiesToEven (fp #b0 #b01111001111 #b1000010001101001100010000000000000000000000000000000) (select (arr!194 qq!74) #b00000000000000000000000000000000)))) #b00000000000000000000000000000010)) (fp.leq (select (store (store (store ((as const (Array (_ BitVec 32) (_ FloatingPoint 11 53))) (fp #b0 #b00000000000 #b0000000000000000000000000000000000000000000000000000)) #b00000000000000000000000000000000 (fp.mul roundNearestTiesToEven (fp #b0 #b01111111111 #b1001001000011111101101000000000000000000000000000000) (select (arr!194 qq!74) #b00000000000000000000000000000000))) #b00000000000000000000000000000001 (fp.add roundNearestTiesToEven (fp.mul roundNearestTiesToEven (fp #b0 #b01111111111 #b1001001000011111101101000000000000000000000000000000) (select (arr!194 qq!74) #b00000000000000000000000000000001)) (fp.mul roundNearestTiesToEven (fp #b0 #b01111100111 #b0100010001000010110100000000000000000000000000000000) (select (arr!194 qq!74) #b00000000000000000000000000000000)))) #b00000000000000000000000000000010 (fp.add roundNearestTiesToEven (fp.add roundNearestTiesToEven (fp.mul roundNearestTiesToEven (fp #b0 #b01111111111 #b1001001000011111101101000000000000000000000000000000) (select (arr!194 qq!74) #b00000000000000000000000000000010)) (fp.mul roundNearestTiesToEven (fp #b0 #b01111100111 #b0100010001000010110100000000000000000000000000000000) (select (arr!194 qq!74) #b00000000000000000000000000000001))) (fp.mul roundNearestTiesToEven (fp #b0 #b01111001111 #b1000010001101001100010000000000000000000000000000000) (select (arr!194 qq!74) #b00000000000000000000000000000000)))) #b00000000000000000000000000000010) (fp #b0 #b01111010000 #b1100110001001011101000011101001010011001111110100000)) (fp.leq (fp #b0 #b00000000000 #b0000000000000000000000000000000000000000000000000000) (select (store (store (store (store ((as const (Array (_ BitVec 32) (_ FloatingPoint 11 53))) (fp #b0 #b00000000000 #b0000000000000000000000000000000000000000000000000000)) #b00000000000000000000000000000000 (fp.mul roundNearestTiesToEven (fp #b0 #b01111111111 #b1001001000011111101101000000000000000000000000000000) (select (arr!194 qq!74) #b00000000000000000000000000000000))) #b00000000000000000000000000000001 (fp.add roundNearestTiesToEven (fp.mul roundNearestTiesToEven (fp #b0 #b01111111111 #b1001001000011111101101000000000000000000000000000000) (select (arr!194 qq!74) #b00000000000000000000000000000001)) (fp.mul roundNearestTiesToEven (fp #b0 #b01111100111 #b0100010001000010110100000000000000000000000000000000) (select (arr!194 qq!74) #b00000000000000000000000000000000)))) #b00000000000000000000000000000010 (fp.add roundNearestTiesToEven (fp.add roundNearestTiesToEven (fp.mul roundNearestTiesToEven (fp #b0 #b01111111111 #b1001001000011111101101000000000000000000000000000000) (select (arr!194 qq!74) #b00000000000000000000000000000010)) (fp.mul roundNearestTiesToEven (fp #b0 #b01111100111 #b0100010001000010110100000000000000000000000000000000) (select (arr!194 qq!74) #b00000000000000000000000000000001))) (fp.mul roundNearestTiesToEven (fp #b0 #b01111001111 #b1000010001101001100010000000000000000000000000000000) (select (arr!194 qq!74) #b00000000000000000000000000000000)))) #b00000000000000000000000000000011 (fp.add roundNearestTiesToEven (fp.add roundNearestTiesToEven (fp.add roundNearestTiesToEven (fp.mul roundNearestTiesToEven (fp #b0 #b01111111111 #b1001001000011111101101000000000000000000000000000000) (select (arr!194 qq!74) #b00000000000000000000000000000011)) (fp.mul roundNearestTiesToEven (fp #b0 #b01111100111 #b0100010001000010110100000000000000000000000000000000) (select (arr!194 qq!74) #b00000000000000000000000000000010))) (fp.mul roundNearestTiesToEven (fp #b0 #b01111001111 #b1000010001101001100010000000000000000000000000000000) (select (arr!194 qq!74) #b00000000000000000000000000000001))) (fp.mul roundNearestTiesToEven (fp #b0 #b01110110111 #b1000110011000101000101100000000000000000000000000000) (select (arr!194 qq!74) #b00000000000000000000000000000000)))) #b00000000000000000000000000000011)) (fp.leq (select (store (store (store (store ((as const (Array (_ BitVec 32) (_ FloatingPoint 11 53))) (fp #b0 #b00000000000 #b0000000000000000000000000000000000000000000000000000)) #b00000000000000000000000000000000 (fp.mul roundNearestTiesToEven (fp #b0 #b01111111111 #b1001001000011111101101000000000000000000000000000000) (select (arr!194 qq!74) #b00000000000000000000000000000000))) #b00000000000000000000000000000001 (fp.add roundNearestTiesToEven (fp.mul roundNearestTiesToEven (fp #b0 #b01111111111 #b1001001000011111101101000000000000000000000000000000) (select (arr!194 qq!74) #b00000000000000000000000000000001)) (fp.mul roundNearestTiesToEven (fp #b0 #b01111100111 #b0100010001000010110100000000000000000000000000000000) (select (arr!194 qq!74) #b00000000000000000000000000000000)))) #b00000000000000000000000000000010 (fp.add roundNearestTiesToEven (fp.add roundNearestTiesToEven (fp.mul roundNearestTiesToEven (fp #b0 #b01111111111 #b1001001000011111101101000000000000000000000000000000) (select (arr!194 qq!74) #b00000000000000000000000000000010)) (fp.mul roundNearestTiesToEven (fp #b0 #b01111100111 #b0100010001000010110100000000000000000000000000000000) (select (arr!194 qq!74) #b00000000000000000000000000000001))) (fp.mul roundNearestTiesToEven (fp #b0 #b01111001111 #b1000010001101001100010000000000000000000000000000000) (select (arr!194 qq!74) #b00000000000000000000000000000000)))) #b00000000000000000000000000000011 (fp.add roundNearestTiesToEven (fp.add roundNearestTiesToEven (fp.add roundNearestTiesToEven (fp.mul roundNearestTiesToEven (fp #b0 #b01111111111 #b1001001000011111101101000000000000000000000000000000) (select (arr!194 qq!74) #b00000000000000000000000000000011)) (fp.mul roundNearestTiesToEven (fp #b0 #b01111100111 #b0100010001000010110100000000000000000000000000000000) (select (arr!194 qq!74) #b00000000000000000000000000000010))) (fp.mul roundNearestTiesToEven (fp #b0 #b01111001111 #b1000010001101001100010000000000000000000000000000000) (select (arr!194 qq!74) #b00000000000000000000000000000001))) (fp.mul roundNearestTiesToEven (fp #b0 #b01110110111 #b1000110011000101000101100000000000000000000000000000) (select (arr!194 qq!74) #b00000000000000000000000000000000)))) #b00000000000000000000000000000011) (fp #b0 #b01110111001 #b0100100001001011101001000100011000011011101101111000)) (bvsle #b00000000000000000000000000000100 i!327) (bvsle i!327 jz!70) (= (size!194 fq!78) #b00000000000000000000000000010100)))))

(assert (= (and start!1169 res!4295) b!5428))

(assert (= (and b!5428 res!4298) b!5429))

(assert (= (and b!5429 res!4297) b!5430))

(assert (= (and b!5430 res!4296) b!5431))

(declare-fun m!8655 () Bool)

(assert (=> b!5431 m!8655))

(declare-fun m!8657 () Bool)

(assert (=> b!5431 m!8657))

(declare-fun m!8659 () Bool)

(assert (=> b!5431 m!8659))

(declare-fun m!8661 () Bool)

(assert (=> b!5431 m!8661))

(declare-fun m!8663 () Bool)

(assert (=> start!1169 m!8663))

(declare-fun m!8665 () Bool)

(assert (=> start!1169 m!8665))

(declare-fun m!8667 () Bool)

(assert (=> b!5429 m!8667))

(declare-fun m!8669 () Bool)

(assert (=> b!5429 m!8669))

(declare-fun m!8671 () Bool)

(assert (=> b!5429 m!8671))

(declare-fun m!8673 () Bool)

(assert (=> b!5429 m!8673))

(declare-fun m!8675 () Bool)

(assert (=> b!5429 m!8675))

(declare-fun m!8677 () Bool)

(assert (=> b!5429 m!8677))

(declare-fun m!8679 () Bool)

(assert (=> b!5429 m!8679))

(declare-fun m!8681 () Bool)

(assert (=> b!5429 m!8681))

(declare-fun m!8683 () Bool)

(assert (=> b!5429 m!8683))

(declare-fun m!8685 () Bool)

(assert (=> b!5429 m!8685))

(declare-fun m!8687 () Bool)

(assert (=> b!5429 m!8687))

(declare-fun m!8689 () Bool)

(assert (=> b!5429 m!8689))

(declare-fun m!8691 () Bool)

(assert (=> b!5430 m!8691))

(declare-fun m!8693 () Bool)

(assert (=> b!5428 m!8693))

(check-sat (not b!5428) (not start!1169) (not b!5430))
(check-sat)
(get-model)

(declare-fun d!2885 () Bool)

(assert (=> d!2885 (= (qqInv!0 qq!74) (and (= (size!194 qq!74) #b00000000000000000000000000010100) (fp.leq (fp #b0 #b00000000000 #b0000000000000000000000000000000000000000000000000000) (select (arr!194 qq!74) #b00000000000000000000000000000000)) (fp.leq (select (arr!194 qq!74) #b00000000000000000000000000000000) (fp #b0 #b01111111101 #b1111111111111111111111000000000000000000000000000000)) (fp.leq (fp #b0 #b00000000000 #b0000000000000000000000000000000000000000000000000000) (select (arr!194 qq!74) #b00000000000000000000000000000001)) (fp.leq (select (arr!194 qq!74) #b00000000000000000000000000000001) (fp #b0 #b01111100110 #b1111111111111111111111100000000000000000000000000000)) (fp.leq (fp #b0 #b00000000000 #b0000000000000000000000000000000000000000000000000000) (select (arr!194 qq!74) #b00000000000000000000000000000010)) (fp.leq (select (arr!194 qq!74) #b00000000000000000000000000000010) (fp #b0 #b01111001110 #b1111111111111111111111100000000000000000000000000000)) (fp.leq (fp #b0 #b00000000000 #b0000000000000000000000000000000000000000000000000000) (select (arr!194 qq!74) #b00000000000000000000000000000011)) (fp.leq (select (arr!194 qq!74) #b00000000000000000000000000000011) (fp #b0 #b01110110110 #b1111111111111111111111100000000000000000000000000000)) (fp.leq (fp #b0 #b00000000000 #b0000000000000000000000000000000000000000000000000000) (select (arr!194 qq!74) #b00000000000000000000000000000100)) (fp.leq (select (arr!194 qq!74) #b00000000000000000000000000000100) (fp #b0 #b01110011110 #b1111111111111111111111100000000000000000000000000000)) (fp.leq (fp #b0 #b00000000000 #b0000000000000000000000000000000000000000000000000000) (select (arr!194 qq!74) #b00000000000000000000000000000101)) (fp.leq (select (arr!194 qq!74) #b00000000000000000000000000000101) (fp #b0 #b01110000110 #b1111111111111111111111100000000000000000000000000000)) (fp.leq (fp #b0 #b00000000000 #b0000000000000000000000000000000000000000000000000000) (select (arr!194 qq!74) #b00000000000000000000000000000110)) (fp.leq (select (arr!194 qq!74) #b00000000000000000000000000000110) (fp #b0 #b01101101110 #b1111111111111111111111100000000000000000000000000000)) (fp.leq (fp #b0 #b00000000000 #b0000000000000000000000000000000000000000000000000000) (select (arr!194 qq!74) #b00000000000000000000000000000111)) (fp.leq (select (arr!194 qq!74) #b00000000000000000000000000000111) (fp #b0 #b01101010110 #b1111111111111111111111100000000000000000000000000000)) (fp.leq (fp #b0 #b00000000000 #b0000000000000000000000000000000000000000000000000000) (select (arr!194 qq!74) #b00000000000000000000000000001000)) (fp.leq (select (arr!194 qq!74) #b00000000000000000000000000001000) (fp #b0 #b01100111110 #b1111111111111111111111100000000000000000000000000000)) (fp.leq (fp #b0 #b00000000000 #b0000000000000000000000000000000000000000000000000000) (select (arr!194 qq!74) #b00000000000000000000000000001001)) (fp.leq (select (arr!194 qq!74) #b00000000000000000000000000001001) (fp #b0 #b01100100110 #b1111111111111111111111100000000000000000000000000000)) (fp.leq (fp #b0 #b00000000000 #b0000000000000000000000000000000000000000000000000000) (select (arr!194 qq!74) #b00000000000000000000000000001010)) (fp.leq (select (arr!194 qq!74) #b00000000000000000000000000001010) (fp #b0 #b01100001110 #b1111111111111111111111100000000000000000000000000000)) (fp.leq (fp #b0 #b00000000000 #b0000000000000000000000000000000000000000000000000000) (select (arr!194 qq!74) #b00000000000000000000000000001011)) (fp.leq (select (arr!194 qq!74) #b00000000000000000000000000001011) (fp #b0 #b01011110110 #b1111111111111111111111100000000000000000000000000000)) (fp.leq (fp #b0 #b00000000000 #b0000000000000000000000000000000000000000000000000000) (select (arr!194 qq!74) #b00000000000000000000000000001100)) (fp.leq (select (arr!194 qq!74) #b00000000000000000000000000001100) (fp #b0 #b01011011110 #b1111111111111111111111100000000000000000000000000000)) (fp.leq (fp #b0 #b00000000000 #b0000000000000000000000000000000000000000000000000000) (select (arr!194 qq!74) #b00000000000000000000000000001101)) (fp.leq (select (arr!194 qq!74) #b00000000000000000000000000001101) (fp #b0 #b01011000110 #b1111111111111111111111100000000000000000000000000000)) (fp.leq (fp #b0 #b00000000000 #b0000000000000000000000000000000000000000000000000000) (select (arr!194 qq!74) #b00000000000000000000000000001110)) (fp.leq (select (arr!194 qq!74) #b00000000000000000000000000001110) (fp #b0 #b01010101110 #b1111111111111111111111100000000000000000000000000000)) (fp.leq (fp #b0 #b00000000000 #b0000000000000000000000000000000000000000000000000000) (select (arr!194 qq!74) #b00000000000000000000000000001111)) (fp.leq (select (arr!194 qq!74) #b00000000000000000000000000001111) (fp #b0 #b01010010110 #b1111111111111111111111100000000000000000000000000000)) (fp.leq (fp #b0 #b00000000000 #b0000000000000000000000000000000000000000000000000000) (select (arr!194 qq!74) #b00000000000000000000000000010000)) (fp.leq (select (arr!194 qq!74) #b00000000000000000000000000010000) (fp #b0 #b01001111110 #b1111111111111111111111100000000000000000000000000000)) (fp.leq (fp #b0 #b00000000000 #b0000000000000000000000000000000000000000000000000000) (select (arr!194 qq!74) #b00000000000000000000000000010001)) (fp.leq (select (arr!194 qq!74) #b00000000000000000000000000010001) (fp #b0 #b01001100110 #b1111111111111111111111100000000000000000000000000000)) (fp.leq (fp #b0 #b00000000000 #b0000000000000000000000000000000000000000000000000000) (select (arr!194 qq!74) #b00000000000000000000000000010010)) (fp.leq (select (arr!194 qq!74) #b00000000000000000000000000010010) (fp #b0 #b01001001110 #b1111111111111111111111100000000000000000000000000000)) (fp.leq (fp #b0 #b00000000000 #b0000000000000000000000000000000000000000000000000000) (select (arr!194 qq!74) #b00000000000000000000000000010011)) (fp.leq (select (arr!194 qq!74) #b00000000000000000000000000010011) (fp #b0 #b01000110110 #b1111111111111111111111100000000000000000000000000000))))))

(declare-fun bs!1325 () Bool)

(assert (= bs!1325 d!2885))

(assert (=> bs!1325 m!8667))

(declare-fun m!8695 () Bool)

(assert (=> bs!1325 m!8695))

(declare-fun m!8697 () Bool)

(assert (=> bs!1325 m!8697))

(assert (=> bs!1325 m!8685))

(declare-fun m!8699 () Bool)

(assert (=> bs!1325 m!8699))

(assert (=> bs!1325 m!8679))

(declare-fun m!8701 () Bool)

(assert (=> bs!1325 m!8701))

(declare-fun m!8703 () Bool)

(assert (=> bs!1325 m!8703))

(assert (=> bs!1325 m!8683))

(declare-fun m!8705 () Bool)

(assert (=> bs!1325 m!8705))

(declare-fun m!8707 () Bool)

(assert (=> bs!1325 m!8707))

(declare-fun m!8709 () Bool)

(assert (=> bs!1325 m!8709))

(declare-fun m!8711 () Bool)

(assert (=> bs!1325 m!8711))

(declare-fun m!8713 () Bool)

(assert (=> bs!1325 m!8713))

(declare-fun m!8715 () Bool)

(assert (=> bs!1325 m!8715))

(declare-fun m!8717 () Bool)

(assert (=> bs!1325 m!8717))

(declare-fun m!8719 () Bool)

(assert (=> bs!1325 m!8719))

(declare-fun m!8721 () Bool)

(assert (=> bs!1325 m!8721))

(declare-fun m!8723 () Bool)

(assert (=> bs!1325 m!8723))

(declare-fun m!8725 () Bool)

(assert (=> bs!1325 m!8725))

(assert (=> b!5428 d!2885))

(declare-fun d!2887 () Bool)

(assert (=> d!2887 (= (array_inv!144 qq!74) (bvsge (size!194 qq!74) #b00000000000000000000000000000000))))

(assert (=> start!1169 d!2887))

(declare-fun d!2889 () Bool)

(assert (=> d!2889 (= (array_inv!144 fq!78) (bvsge (size!194 fq!78) #b00000000000000000000000000000000))))

(assert (=> start!1169 d!2889))

(declare-fun d!2891 () Bool)

(assert (=> d!2891 (= (fqInv!0 fq!78) (and (= (size!194 fq!78) #b00000000000000000000000000010100) (fp.leq (fp #b0 #b00000000000 #b0000000000000000000000000000000000000000000000000000) (select (arr!194 fq!78) #b00000000000000000000000000000000)) (fp.leq (select (arr!194 fq!78) #b00000000000000000000000000000000) (fp #b0 #b01111111110 #b1001001000011111101100001101101111000000100110000000)) (fp.leq (fp #b0 #b00000000000 #b0000000000000000000000000000000000000000000000000000) (select (arr!194 fq!78) #b00000000000000000000000000000001)) (fp.leq (select (arr!194 fq!78) #b00000000000000000000000000000001) (fp #b0 #b01111101000 #b0001101000100000100011001001010011001110101111100000)) (fp.leq (fp #b0 #b00000000000 #b0000000000000000000000000000000000000000000000000000) (select (arr!194 fq!78) #b00000000000000000000000000000010)) (fp.leq (select (arr!194 fq!78) #b00000000000000000000000000000010) (fp #b0 #b01111010000 #b1100110001001011101000011101001010011001111110100000)) (fp.leq (fp #b0 #b00000000000 #b0000000000000000000000000000000000000000000000000000) (select (arr!194 fq!78) #b00000000000000000000000000000011)) (fp.leq (select (arr!194 fq!78) #b00000000000000000000000000000011) (fp #b0 #b01110111001 #b0100100001001011101001000100011000011011101101111000)) (fp.leq (fp #b0 #b00000000000 #b0000000000000000000000000000000000000000000000000000) (select (arr!194 fq!78) #b00000000000000000000000000000100)) (fp.leq (select (arr!194 fq!78) #b00000000000000000000000000000100) (fp #b0 #b01110100001 #b1001101000011011010011011100010110101101101010011000)) (fp.leq (fp #b0 #b00000000000 #b0000000000000000000000000000000000000000000000000000) (select (arr!194 fq!78) #b00000000000000000000000000000101)) (fp.leq (select (arr!194 fq!78) #b00000000000000000000000000000101) (fp #b0 #b01110001001 #b1011101001010010010101001100010110101101101010011000)) (fp.leq (fp #b0 #b00000000000 #b0000000000000000000000000000000000000000000000000000) (select (arr!194 fq!78) #b00000000000000000000000000000110)) (fp.leq (select (arr!194 fq!78) #b00000000000000000000000000000110) (fp #b0 #b01101110001 #b1011101001010010010101001100010110101101101010011000)) (fp.leq (fp #b0 #b00000000000 #b0000000000000000000000000000000000000000000000000000) (select (arr!194 fq!78) #b00000000000000000000000000000111)) (fp.leq (select (arr!194 fq!78) #b00000000000000000000000000000111) (fp #b0 #b01101011001 #b1011101001010010010101001100010110101101101010011000)) (fp.leq (fp #b0 #b00000000000 #b0000000000000000000000000000000000000000000000000000) (select (arr!194 fq!78) #b00000000000000000000000000001000)) (fp.leq (select (arr!194 fq!78) #b00000000000000000000000000001000) (fp #b0 #b01101000001 #b1011101001010010010101001100010110101101101010011000)) (fp.leq (fp #b0 #b00000000000 #b0000000000000000000000000000000000000000000000000000) (select (arr!194 fq!78) #b00000000000000000000000000001001)) (fp.leq (select (arr!194 fq!78) #b00000000000000000000000000001001) (fp #b0 #b01100101001 #b1011101001010010010101001100010110101101101010011000)) (fp.leq (fp #b0 #b00000000000 #b0000000000000000000000000000000000000000000000000000) (select (arr!194 fq!78) #b00000000000000000000000000001010)) (fp.leq (select (arr!194 fq!78) #b00000000000000000000000000001010) (fp #b0 #b01100010001 #b1011101001010010010101001100010110101101101010011000)) (fp.leq (fp #b0 #b00000000000 #b0000000000000000000000000000000000000000000000000000) (select (arr!194 fq!78) #b00000000000000000000000000001011)) (fp.leq (select (arr!194 fq!78) #b00000000000000000000000000001011) (fp #b0 #b01011111001 #b1011101001010010010101001100010110101101101010011000)) (fp.leq (fp #b0 #b00000000000 #b0000000000000000000000000000000000000000000000000000) (select (arr!194 fq!78) #b00000000000000000000000000001100)) (fp.leq (select (arr!194 fq!78) #b00000000000000000000000000001100) (fp #b0 #b01011100001 #b1011101001010010010101001100010110101101101010011000)) (fp.leq (fp #b0 #b00000000000 #b0000000000000000000000000000000000000000000000000000) (select (arr!194 fq!78) #b00000000000000000000000000001101)) (fp.leq (select (arr!194 fq!78) #b00000000000000000000000000001101) (fp #b0 #b01011001001 #b1011101001010010010101001100010110101101101010011000)) (fp.leq (fp #b0 #b00000000000 #b0000000000000000000000000000000000000000000000000000) (select (arr!194 fq!78) #b00000000000000000000000000001110)) (fp.leq (select (arr!194 fq!78) #b00000000000000000000000000001110) (fp #b0 #b01010110001 #b1011101001010010010101001100010110101101101010011000)) (fp.leq (fp #b0 #b00000000000 #b0000000000000000000000000000000000000000000000000000) (select (arr!194 fq!78) #b00000000000000000000000000001111)) (fp.leq (select (arr!194 fq!78) #b00000000000000000000000000001111) (fp #b0 #b01010011001 #b1011101001010010010101001100010110101101101010011000)) (fp.leq (fp #b0 #b00000000000 #b0000000000000000000000000000000000000000000000000000) (select (arr!194 fq!78) #b00000000000000000000000000010000)) (fp.leq (select (arr!194 fq!78) #b00000000000000000000000000010000) (fp #b0 #b01010000001 #b1011101001010010010101001100010110101101101010011000)) (fp.leq (fp #b0 #b00000000000 #b0000000000000000000000000000000000000000000000000000) (select (arr!194 fq!78) #b00000000000000000000000000010001)) (fp.leq (select (arr!194 fq!78) #b00000000000000000000000000010001) (fp #b0 #b01001101001 #b1011101001010010010101001100010110101101101010011000)) (fp.leq (fp #b0 #b00000000000 #b0000000000000000000000000000000000000000000000000000) (select (arr!194 fq!78) #b00000000000000000000000000010010)) (fp.leq (select (arr!194 fq!78) #b00000000000000000000000000010010) (fp #b0 #b01001010001 #b1011101001010010010101001100010110101101101010011000)) (fp.leq (fp #b0 #b00000000000 #b0000000000000000000000000000000000000000000000000000) (select (arr!194 fq!78) #b00000000000000000000000000010011)) (fp.leq (select (arr!194 fq!78) #b00000000000000000000000000010011) (fp #b0 #b01000111001 #b1011101001010010010101001100010110101101101010011000))))))

(declare-fun bs!1326 () Bool)

(assert (= bs!1326 d!2891))

(declare-fun m!8727 () Bool)

(assert (=> bs!1326 m!8727))

(declare-fun m!8729 () Bool)

(assert (=> bs!1326 m!8729))

(declare-fun m!8731 () Bool)

(assert (=> bs!1326 m!8731))

(declare-fun m!8733 () Bool)

(assert (=> bs!1326 m!8733))

(declare-fun m!8735 () Bool)

(assert (=> bs!1326 m!8735))

(declare-fun m!8737 () Bool)

(assert (=> bs!1326 m!8737))

(declare-fun m!8739 () Bool)

(assert (=> bs!1326 m!8739))

(declare-fun m!8741 () Bool)

(assert (=> bs!1326 m!8741))

(declare-fun m!8743 () Bool)

(assert (=> bs!1326 m!8743))

(declare-fun m!8745 () Bool)

(assert (=> bs!1326 m!8745))

(declare-fun m!8747 () Bool)

(assert (=> bs!1326 m!8747))

(declare-fun m!8749 () Bool)

(assert (=> bs!1326 m!8749))

(declare-fun m!8751 () Bool)

(assert (=> bs!1326 m!8751))

(declare-fun m!8753 () Bool)

(assert (=> bs!1326 m!8753))

(declare-fun m!8755 () Bool)

(assert (=> bs!1326 m!8755))

(declare-fun m!8757 () Bool)

(assert (=> bs!1326 m!8757))

(declare-fun m!8759 () Bool)

(assert (=> bs!1326 m!8759))

(declare-fun m!8761 () Bool)

(assert (=> bs!1326 m!8761))

(declare-fun m!8763 () Bool)

(assert (=> bs!1326 m!8763))

(declare-fun m!8765 () Bool)

(assert (=> bs!1326 m!8765))

(assert (=> b!5430 d!2891))

(check-sat)
